c ---- [ banner ] ------------------------------------------------------------
c
c Kissat SAT Solver
c 
c Copyright (c) 2021-2024 Armin Biere University of Freiburg
c Copyright (c) 2019-2021 Armin Biere Johannes Kepler University Linz
c 
c Version 4.0.1 43f02cf3e992cb44653b35e5cb26f93281552ae0
c gcc (Ubuntu 13.2.0-23ubuntu4) 13.2.0 -W -Wall -O3 -DNDEBUG
c Thu Sep 12 12:27:46 CEST 2024 Linux abryzen9 6.8.0-41-generic x86_64
c
c ---- [ parsing ] -----------------------------------------------------------
c
c opened and reading DIMACS file:
c
c   /data/artifact/AMulet2.0_artifact/exp4/cnf_dc2_64/64_64_U1_WT_BK_Multgen_dc2.cnf
c
c parsed 'p cnf 30895 134326' header
c closing input after reading 2681392 bytes (3 MB)
c finished parsing after 0.02 seconds
c
c ---- [ options ] -----------------------------------------------------------
c
c --stable=0                       (different from default '1')
c
c ---- [ solving ] -----------------------------------------------------------
c
c  seconds switched rate     size/glue tier1  binary           remaining
c         MB reductions conflicts size  tier2     irredundant
c          level restarts redundant glue  trail           variables
c
c *  0.02 10 0 0 0  0 0   0   0 0.0 0 0 0 0 0% 12960 121364 30892 100%
c (  0.03 13 0 0 0  0 0   0   0 0.0 0 0 0 0 0% 12960 121364 30892 100%
c .  0.04 13 0 0 0  0 0   0   0 0.0 0 0 0 0 0% 12956 121364 30892 100%
c c  0.09 19 0 0 0  0 0   0   0 0.0 0 0 0 0 0% 19869 107735 27435 89%
c d  0.09 19 0 0 0  0 0   0   0 0.0 0 0 0 0 0% 12955 107735 27435 89%
c =  0.13 19 0 0 0  0 0   0   0 0.0 0 0 0 0 0% 13297 107735 27199 88%
c d  0.14 19 0 0 0  0 0   0   0 0.0 0 0 0 0 0% 12825 107735 27199 88%
c f  0.21 19 0 0 0  0 0   0   0 0.0 0 0 0 0 0% 17681 100104 29928 97%
c e  0.34 29 0 0 0  0 0   0   0 0.0 0 0 0 0 0% 11300 108251 20795 67%
c )  0.34 29 0 0 0  0 0   0   0 0.0 0 0 0 0 0% 11300 108251 20795 67%
c {  0.36 29 0 0 0  0 0   0   0 0.0 0 0 2 6 0% 11300 108251 20795 67%
c -  0.48 29 255 0 1 264 43 1000 682 4.4 21 5 3 10 18% 11421 108243 20795 67%
c -  0.61 29 372 0 2 373 44 2000 1388 4.4 21 5 2 8 21% 11485 108234 20795 67%
c c  0.67 26 469 0 2 373 38 2506 1768 4.1 18 4 2 8 20% 11629 107871 20746 67%
c d  0.67 26 469 0 2 373 38 2506 1762 4.1 18 4 2 8 20% 11531 107871 20746 67%
c u  0.68 26 469 0 2 373 38 2506 1489 4.1 18 4 2 8 20% 11548 107871 20746 67%
c v  0.69 26 469 0 2 373 38 2506 1174 4.1 18 4 2 8 20% 11548 107871 20746 67%
c w  0.70 26 469 0 2 373 38 2506 1158 4.1 18 4 2 8 20% 11548 107871 20746 67%
c x  0.71 26 469 0 2 373 38 2506 1155 4.1 18 4 2 8 20% 11642 107657 20746 67%
c =  0.75 26 469 0 2 373 38 2506 1155 4.1 18 4 2 8 20% 12030 107657 20552 67%
c
c  seconds   switched   rate       size/glue tier1    binary           remaining
c         MB  reductions conflicts       size  tier2      irredundant
c           level restarts    redundant    glue   trail           variables
c
c d  0.75 26 469 0 2 373 38 2506 1152 4.1 18 4 2 8 20% 11639 107657 20552 67%
c t  0.76 26 469 0 2 373 38 2506 1152 4.1 18 4 2 8 20% 11629 107657 20552 67%
c f  0.77 26 469 0 2 373 38 2506 1152 4.1 18 4 2 8 20% 12197 106489 21136 68%
c u  0.83 26 469 0 2 373 38 2506 1118 4.1 18 4 2 8 20% 12204 106489 21136 68%
c v  0.84 26 469 0 2 373 38 2506 1078 4.1 18 4 2 8 20% 12204 106489 21136 68%
c w  0.84 26 469 0 2 373 38 2506 1072 4.1 18 4 2 8 20% 12204 106489 21136 68%
c x  0.86 26 469 0 2 373 38 2506 1072 4.1 18 4 2 8 20% 12204 105883 21136 68%
c =  0.89 26 469 0 2 373 38 2506 1072 4.1 18 4 2 8 20% 12382 105883 21047 68%
c d  0.90 26 469 0 2 373 38 2506 1072 4.1 18 4 2 8 20% 12204 105883 21047 68%
c f  0.92 26 469 0 2 373 38 2506 1072 4.1 18 4 2 8 20% 12212 105865 21053 68%
c -  1.16 26 446 0 3 588 41 3414 1663 4.3 23 5 2 8 21% 12246 105864 21053 68%
c -  1.43 27 455 0 4 849 40 5146 2822 3.9 22 6 2 9 23% 12297 105863 21053 68%
c -  1.71 27 429 0 5 1039 41 7146 4062 3.9 22 6 2 8 22% 12374 105840 21053 68%
c d  1.80 27 423 0 5 1071 39 7711 4467 3.8 22 6 2 8 22% 12360 105840 21030 68%
c u  1.84 27 423 0 5 1071 39 7711 3940 3.8 22 6 2 8 22% 12375 105840 21030 68%
c v  1.88 27 423 0 5 1071 39 7711 3436 3.8 22 6 2 8 22% 12375 105840 21030 68%
c w  1.91 27 423 0 5 1071 39 7711 3423 3.8 22 6 2 8 22% 12375 105840 21030 68%
c x  1.95 27 423 0 5 1071 39 7711 3423 3.8 22 6 2 8 22% 12377 105798 21030 68%
c =  2.07 27 423 0 5 1071 39 7711 3423 3.8 22 6 2 8 22% 12911 105798 20763 67%
c d  2.08 27 423 0 5 1071 39 7711 3412 3.8 22 6 2 8 22% 12327 105798 20763 67%
c
c  seconds   switched    rate       size/glue tier1    binary           remaining
c         MB  reductions  conflicts       size  tier2      irredundant
c           level  restarts    redundant    glue   trail           variables
c
c t  2.09 27 423 0 5 1071 39 7711 3412 3.8 22 6 2 8 22% 12319 105798 20763 67%
c f  2.12 27 423 0 5 1071 39 7711 3412 3.8 22 6 2 8 22% 12527 105466 20869 68%
c u  2.18 27 423 0 5 1071 39 7711 3324 3.8 22 6 2 8 22% 12529 105466 20869 68%
c v  2.20 27 423 0 5 1071 39 7711 3253 3.8 22 6 2 8 22% 12529 105466 20869 68%
c w  2.21 27 423 0 5 1071 39 7711 3245 3.8 22 6 2 8 22% 12529 105466 20869 68%
c =  2.30 27 423 0 5 1071 39 7711 3245 3.8 22 6 2 8 22% 13437 105466 20415 66%
c d  2.31 27 423 0 5 1071 39 7711 3234 3.8 22 6 2 8 22% 12394 105466 20415 66%
c t  2.32 27 423 0 5 1071 39 7711 3234 3.8 22 6 2 8 22% 12341 105466 20415 66%
c f  2.35 27 423 0 5 1071 39 7711 3234 3.8 22 6 2 8 22% 14656 101993 21573 70%
c -  3.05 27 387 0 6 1330 40 9382 4171 4.0 25 6 2 8 25% 14685 101993 21573 70%
c o  3.19 27 413 0 6 1386 41 10094 4784 4.1 25 6 2 8 25% 14716 101993 21573 70%
c -  3.62 27 408 0 7 1573 40 11831 5477 4.2 27 6 2 8 24% 14802 101990 21573 70%
c s  3.77 27 404 0 7 1622 39 12514 6067 4.2 27 6 2 8 24% 14830 96687 21573 70%
c e  3.92 27 404 0 7 1622 39 12514 6067 4.2 27 6 2 8 24% 13644 97635 20883 68%
c s  3.92 27 404 0 7 1622 39 12514 6067 4.2 27 6 2 8 24% 13650 97028 20883 68%
c e  3.94 27 404 0 7 1622 39 12514 6067 4.2 27 6 2 8 24% 13646 97032 20882 68%
c ^  3.94 27 404 0 7 1622 39 12514 6067 4.2 27 6 2 8 24% 13646 97032 20882 68%
c -  4.24 27 397 0 8 1760 38 14476 6327 4.3 28 6 2 8 24% 13724 97030 20882 68%
c d  4.54 27 390 0 8 1950 38 15794 7474 4.3 28 7 2 8 25% 13352 97027 20644 67%
c u  4.57 27 390 0 8 1950 38 15794 6549 4.3 28 7 2 8 25% 13368 97027 20644 67%
c
c  seconds   switched    rate        size/glue tier1    binary          remaining
c         MB  reductions   conflicts       size  tier2      irredundant
c           level  restarts     redundant    glue   trail          variables
c
c v  4.60 27 390 0 8 1950 38 15794 5726 4.3 28 7 2 8 25% 13370 97027 20644 67%
c w  4.67 27 390 0 8 1950 38 15794 5723 4.3 28 7 2 8 25% 13370 97027 20644 67%
c x  4.71 27 390 0 8 1950 38 15794 5723 4.3 28 7 2 8 25% 13409 96776 20644 67%
c =  4.86 27 390 0 8 1950 38 15794 5723 4.3 28 7 2 8 25% 14241 96770 20228 65%
c d  4.86 27 390 0 8 1950 38 15794 5652 4.3 28 7 2 8 25% 13172 96770 20224 65%
c t  4.88 27 390 0 8 1950 38 15794 5652 4.3 28 7 2 8 25% 13116 96770 20224 65%
c f  4.93 27 390 0 8 1950 38 15794 5652 4.3 28 7 2 8 25% 13234 96515 20289 66%
c u  4.96 27 390 0 8 1950 38 15794 5456 4.3 28 7 2 8 25% 13241 96515 20289 66%
c v  4.98 27 390 0 8 1950 38 15794 5328 4.3 28 7 2 8 25% 13241 96515 20289 66%
c w  5.06 27 390 0 8 1950 38 15794 5290 4.3 28 7 2 8 25% 13241 96515 20289 66%
c x  5.09 27 390 0 8 1950 38 15794 5290 4.3 28 7 2 8 25% 13313 94972 20289 66%
c =  5.26 29 390 0 8 1950 38 15794 5290 4.3 28 7 2 8 25% 14737 94972 19577 63%
c d  5.27 29 390 0 8 1950 38 15794 5217 4.3 28 7 2 8 25% 12777 94972 19577 63%
c t  5.28 29 390 0 8 1950 38 15794 5217 4.3 28 7 2 8 25% 12765 94972 19577 63%
c f  5.30 29 390 0 8 1950 38 15794 5217 4.3 28 7 2 8 25% 12771 94958 19580 63%
c -  5.73 29 380 0 9 2214 38 17306 5705 4.3 30 7 2 8 26% 12826 94958 19580 63%
c o  6.11 29 397 0 9 2395 37 20143 8168 4.3 30 7 2 8 26% 12901 94957 19580 63%
c -  6.18 29 395 0 10 2440 38 20307 7418 4.4 31 7 2 8 26% 12903 94957 19580 63%
c -  6.52 29 392 0 11 2611 36 23469 9049 4.3 29 7 2 7 25% 12991 94956 19580 63%
c s  6.72 29 398 0 11 2691 35 25018 10395 4.3 29 7 2 7 25% 13055 92259 19580 63%
c
c  seconds   switched     rate         size/glue tier1    binary          remaining
c         MB   reductions   conflicts        size  tier2      irredundant
c           level   restarts      redundant    glue   trail          variables
c
c e  6.82 29 398 0 11 2691 35 25018 10395 4.3 29 7 2 7 25% 10786 95370 18313 59%
c s  6.82 29 398 0 11 2691 35 25018 10395 4.3 29 7 2 7 25% 10814 94975 18313 59%
c e  6.83 29 398 0 11 2691 35 25018 10395 4.3 29 7 2 7 25% 10786 95012 18299 59%
c ^  6.83 29 398 0 11 2691 35 25018 10395 4.3 29 7 2 7 25% 10786 95012 18299 59%
c -  7.07 29 396 0 12 2819 34 26785 9798 4.3 29 7 2 7 25% 10821 95012 18299 59%
c c  7.13 29 394 0 12 2831 34 26922 9923 4.3 29 7 2 7 25% 10858 94856 18276 59%
c d  7.14 29 394 0 12 2831 34 26922 9885 4.3 29 7 2 7 25% 10574 94856 18133 59%
c u  7.17 29 394 0 12 2831 34 26922 8428 4.3 29 7 2 7 25% 10587 94856 18133 59%
c v  7.20 29 394 0 12 2831 34 26922 7545 4.3 29 7 2 7 25% 10589 94856 18133 59%
c w  7.21 29 394 0 12 2831 34 26922 7540 4.3 29 7 2 7 25% 10589 94856 18133 59%
c x  7.26 29 394 0 12 2831 34 26922 7538 4.3 29 7 2 7 25% 10639 93987 18133 59%
c =  7.46 29 394 0 12 2831 34 26922 7538 4.3 29 7 2 7 25% 13945 93987 16480 53%
c d  7.47 29 394 0 12 2831 34 26922 7364 4.3 29 7 2 7 25% 10581 93987 16478 53%
c t  7.48 29 394 0 12 2831 34 26922 7364 4.3 29 7 2 7 25% 10494 93987 16478 53%
c f  7.53 29 394 0 12 2831 34 26922 7364 4.3 29 7 2 7 25% 10491 93888 16499 53%
c u  7.56 29 394 0 12 2831 34 26922 6918 4.3 29 7 2 7 25% 10495 93888 16499 53%
c v  7.59 29 394 0 12 2831 34 26922 6798 4.3 29 7 2 7 25% 10495 93888 16499 53%
c w  7.60 29 394 0 12 2831 34 26922 6793 4.3 29 7 2 7 25% 10495 93888 16499 53%
c x  7.66 29 394 0 12 2831 34 26922 6793 4.3 29 7 2 7 25% 10499 86951 16499 53%
c =  7.83 29 394 0 12 2831 34 26922 6793 4.3 29 7 2 7 25% 12251 86951 15623 51%
c
c  seconds   switched     rate        size/glue tier1    binary          remaining
c         MB   reductions   conflicts       size  tier2      irredundant
c           level   restarts     redundant    glue   trail          variables
c
c d  7.84 29 394 0 12 2831 34 26922 6741 4.3 29 7 2 7 25% 10450 86951 15623 51%
c t  7.85 29 394 0 12 2831 34 26922 6741 4.3 29 7 2 7 25% 10383 86951 15623 51%
c f  7.87 29 394 0 12 2831 34 26922 6741 4.3 29 7 2 7 25% 10391 86907 15634 51%
c -  8.33 29 375 0 13 3161 34 30250 8694 4.2 29 7 2 7 25% 10440 86905 15634 51%
c -  8.79 29 364 0 14 3469 33 33855 10743 4.2 29 7 2 7 25% 10514 86903 15634 51%
c -  9.09 29 343 0 15 3651 31 37596 12469 4.1 28 7 2 7 24% 10594 86902 15634 51%
c o  9.38 29 345 0 15 3846 31 40161 14623 4.1 28 7 2 7 24% 10651 86901 15634 51%
c c  9.60 29 340 0 15 4000 31 41248 15591 4.1 28 7 2 7 24% 10775 86266 15529 50%
c d  9.61 29 340 0 15 4000 31 41248 15351 4.1 28 7 2 7 24% 10565 86266 15529 50%
c u  9.65 29 340 0 15 4000 31 41248 12765 4.1 28 7 2 7 24% 10610 86266 15529 50%
c v  9.70 29 340 0 15 4000 31 41248 11620 4.1 28 7 2 7 24% 10614 86266 15529 50%
c w  9.73 29 340 0 15 4000 31 41248 11620 4.1 28 7 2 7 24% 10614 86266 15529 50%
c x  9.77 29 340 0 15 4000 31 41248 11620 4.1 28 7 2 7 24% 10616 80211 15529 50%
c d  9.92 29 340 0 15 4000 31 41248 11616 4.1 28 7 2 7 24% 10606 80211 15524 50%
c t  9.93 29 340 0 15 4000 31 41248 11616 4.1 28 7 2 7 24% 10586 80211 15524 50%
c f  9.94 29 340 0 15 4000 31 41248 11616 4.1 28 7 2 7 24% 10583 80211 15525 50%
c c  9.98 29 340 0 15 4000 31 41248 11616 4.1 28 7 2 7 24% 10600 80153 15516 50%
c d  9.98 29 340 0 15 4000 31 41248 11610 4.1 28 7 2 7 24% 10582 80153 15516 50%
c u 10.02 29 340 0 15 4000 31 41248 11098 4.1 28 7 2 7 24% 10582 80153 15516 50%
c v 10.05 29 340 0 15 4000 31 41248 10593 4.1 28 7 2 7 24% 10583 80153 15516 50%
c
c  seconds   switched     rate         size/glue tier1    binary          remaining
c         MB   reductions   conflicts        size  tier2      irredundant
c           level   restarts      redundant    glue   trail          variables
c
c w 10.10 29 340 0 15 4000 31 41248 10587 4.1 28 7 2 7 24% 10583 80153 15516 50%
c x 10.15 29 340 0 15 4000 31 41248 10587 4.1 28 7 2 7 24% 10587 78942 15516 50%
c d 10.15 29 340 0 15 4000 31 41248 10585 4.1 28 7 2 7 24% 10585 78942 15515 50%
c t 10.16 29 340 0 15 4000 31 41248 10585 4.1 28 7 2 7 24% 10581 78942 15515 50%
c - 10.19 29 340 0 16 4016 31 41470 9594 4.1 28 7 2 6 24% 10592 78942 15515 50%
c - 10.60 29 328 0 17 4300 30 45470 11769 4.0 27 7 2 6 24% 10667 78941 15515 50%
c - 11.04 29 324 0 18 4631 30 49593 13907 4.0 27 7 2 6 24% 10762 78941 15515 50%
c s 11.33 29 319 0 18 4852 30 52121 16099 3.9 27 7 2 6 24% 10818 76447 15515 50%
c e 11.40 29 319 0 18 4852 30 52121 16099 3.9 27 7 2 6 24% 10040 77540 15114 49%
c 2 11.40 29 319 0 18 4852 30 52121 16099 3.9 27 7 2 6 24% 10039 77540 15114 49%
c s 11.40 29 319 0 18 4852 30 52121 16099 3.9 27 7 2 6 24% 10050 77115 15114 49%
c e 11.41 29 319 0 18 4852 30 52121 16099 3.9 27 7 2 6 24% 10039 77129 15109 49%
c ^ 11.41 29 319 0 18 4852 30 52121 16099 3.9 27 7 2 6 24% 10039 77129 15109 49%
c - 11.60 29 316 0 19 4979 30 53835 14577 3.9 27 7 2 6 24% 10095 77127 15109 49%
c - 12.11 29 305 0 20 5417 29 58193 14447 3.9 27 7 1 6 24% 10153 77127 15109 49%
c d 12.29 29 303 0 20 5547 30 58882 15036 3.9 27 7 1 6 24% 10105 77127 15081 49%
c u 12.32 29 303 0 20 5547 30 58882 13453 3.9 27 7 1 6 24% 10132 77127 15081 49%
c v 12.37 29 303 0 20 5547 30 58882 11298 3.9 27 7 1 6 24% 10151 77127 15081 49%
c w 12.45 29 303 0 20 5547 30 58882 11295 3.9 27 7 1 6 24% 10151 77127 15081 49%
c x 12.50 29 303 0 20 5547 30 58882 11293 3.9 27 7 1 6 24% 10165 76268 15081 49%
c
c  seconds   switched     rate         size/glue tier1    binary          remaining
c         MB   reductions   conflicts        size  tier2      irredundant
c           level   restarts      redundant    glue   trail          variables
c
c = 12.69 29 303 0 20 5547 30 58882 11293 3.9 27 7 1 6 24% 10415 76268 14956 48%
c d 12.70 29 303 0 20 5547 30 58882 11261 3.9 27 7 1 6 24% 10132 76268 14941 48%
c t 12.71 29 303 0 20 5547 30 58882 11261 3.9 27 7 1 6 24% 10094 76268 14941 48%
c f 12.74 29 303 0 20 5547 30 58882 11261 3.9 27 7 1 6 24% 10098 76236 14946 48%
c c 12.78 29 303 0 20 5547 30 58882 11192 3.9 27 7 1 6 24% 10200 75860 14896 48%
c d 12.79 29 303 0 20 5547 30 58882 11192 3.9 27 7 1 6 24% 10100 75860 14896 48%
c u 12.81 29 303 0 20 5547 30 58882 10841 3.9 27 7 1 6 24% 10094 75860 14896 48%
c v 12.86 29 303 0 20 5547 30 58882 10364 3.9 27 7 1 6 24% 10102 75860 14896 48%
c w 12.95 29 303 0 20 5547 30 58882 10321 3.9 27 7 1 6 24% 10102 75860 14896 48%
c x 13.02 29 303 0 20 5547 30 58882 10320 3.9 27 7 1 6 24% 10121 74643 14896 48%
c = 13.26 29 303 0 20 5547 30 58882 10320 3.9 27 7 1 6 24% 10955 74643 14479 47%
c d 13.26 29 303 0 20 5547 30 58882 10227 3.9 27 7 1 6 24% 10080 74643 14476 47%
c t 13.27 29 303 0 20 5547 30 58882 10227 3.9 27 7 1 6 24% 10039 74643 14476 47%
c f 13.29 29 303 0 20 5547 30 58882 10227 3.9 27 7 1 6 24% 10042 74631 14477 47%
c - 13.57 29 296 0 21 5747 29 62667 11192 3.8 26 7 1 6 23% 10141 74630 14477 47%
c - 14.17 29 287 0 22 6235 29 67249 12918 3.8 26 7 1 6 24% 10238 74630 14477 47%
c o 14.44 29 281 0 22 6463 28 70168 15410 3.7 26 7 1 6 23% 10296 74629 14477 47%
c - 14.63 29 279 0 23 6603 28 71940 14200 3.7 26 7 1 6 23% 10342 74629 14477 47%
c - 15.09 29 276 0 24 6913 27 76736 15095 3.6 26 7 1 6 23% 10452 74629 14477 47%
c c 15.44 29 272 0 24 7160 27 79952 17806 3.6 25 7 1 6 23% 10660 73146 14196 46%
c
c  seconds   switched     rate         size/glue tier1    binary          remaining
c         MB   reductions   conflicts        size  tier2      irredundant
c           level   restarts      redundant    glue   trail          variables
c
c d 15.45 29 272 0 24 7160 27 79952 17066 3.6 25 7 1 6 23% 10098 73146 14196 46%
c u 15.48 29 272 0 24 7160 27 79952 15080 3.6 25 7 1 6 23% 10122 73146 14196 46%
c v 15.54 29 272 0 24 7160 27 79952 12581 3.6 25 7 1 6 23% 10152 73146 14196 46%
c w 15.60 29 272 0 24 7160 27 79952 12570 3.6 25 7 1 6 23% 10152 73146 14196 46%
c x 15.66 29 272 0 24 7160 27 79952 12568 3.6 25 7 1 6 23% 10171 72163 14196 46%
c = 15.80 29 272 0 24 7160 27 79952 12568 3.6 25 7 1 6 23% 10665 72163 13949 45%
c d 15.80 29 272 0 24 7160 27 79952 12183 3.6 25 7 1 6 23% 10081 72163 13928 45%
c t 15.81 29 272 0 24 7160 27 79952 12183 3.6 25 7 1 6 23% 10008 72163 13928 45%
c f 15.83 29 272 0 24 7160 27 79952 12183 3.6 25 7 1 6 23% 10017 72079 13941 45%
c c 15.86 29 272 0 24 7160 27 79952 12127 3.6 25 7 1 6 23% 10035 72009 13932 45%
c d 15.87 29 272 0 24 7160 27 79952 12127 3.6 25 7 1 6 23% 10017 72009 13932 45%
c u 15.90 29 272 0 24 7160 27 79952 11581 3.6 25 7 1 6 23% 10027 72009 13932 45%
c v 15.93 29 272 0 24 7160 27 79952 10969 3.6 25 7 1 6 23% 10035 72009 13932 45%
c w 16.01 29 272 0 24 7160 27 79952 10878 3.6 25 7 1 6 23% 10035 72009 13932 45%
c x 16.06 29 272 0 24 7160 27 79952 10878 3.6 25 7 1 6 23% 10049 71084 13932 45%
c = 16.35 29 272 0 24 7160 27 79952 10878 3.6 25 7 1 6 23% 10739 71067 13587 44%
c d 16.36 29 272 0 24 7160 27 79952 10692 3.6 25 7 1 6 23% 9978 71067 13585 44%
c t 16.37 29 272 0 24 7160 27 79952 10692 3.6 25 7 1 6 23% 9907 71067 13585 44%
c f 16.38 29 272 0 24 7160 27 79952 10692 3.6 25 7 1 6 23% 9922 70958 13600 44%
c - 16.79 29 269 0 25 7398 27 81634 10301 3.6 26 7 1 6 23% 9940 70958 13600 44%
c
c  seconds   switched     rate         size/glue tier1    binary          remaining
c         MB   reductions   conflicts        size  tier2      irredundant
c           level   restarts      redundant    glue   trail          variables
c
c - 17.58 29 261 0 26 7836 27 86634 12631 3.6 25 7 1 6 23% 10038 70956 13600 44%
c i 18.11 29 256 0 26 8115 27 89803 15316 3.6 26 7 1 6 23% 10120 70954 13594 44%
c - 18.36 29 253 0 27 8246 26 91733 14303 3.6 25 7 1 5 23% 10136 70954 13594 44%
c s 19.37 29 248 0 27 8715 26 95798 18000 3.6 25 7 1 5 23% 10175 66799 13594 44%
c e 19.50 29 248 0 27 8715 26 95798 18000 3.6 25 7 1 5 23% 6543 75232 11808 38%
c 2 19.50 29 248 0 27 8715 26 95798 18000 3.6 25 7 1 5 23% 6526 75232 11808 38%
c s 19.52 29 248 0 27 8715 26 95798 18000 3.6 25 7 1 5 23% 6545 74451 11808 38%
c e 19.54 29 248 0 27 8715 26 95798 18000 3.6 25 7 1 5 23% 6491 74600 11772 38%
c ^ 19.54 29 248 0 27 8715 26 95798 18000 3.6 25 7 1 5 23% 6491 74600 11772 38%
c - 19.76 29 247 0 28 8825 26 96929 11460 3.5 25 7 1 5 23% 6501 74599 11772 38%
c i 20.57 29 241 0 28 9236 26 100610 14796 3.5 26 7 1 5 24% 6538 74599 11771 38%
c - 20.69 29 239 0 29 9295 26 102224 13946 3.5 25 7 1 5 23% 6547 74599 11771 38%
c i 21.14 29 235 0 29 9535 26 104234 15762 3.5 25 7 1 5 24% 6569 74598 11770 38%
c d 21.20 29 235 0 29 9558 26 104591 15868 3.5 25 7 1 5 24% 6518 74580 11740 38%
c d 21.21 29 235 0 29 9558 26 104591 15865 3.5 25 7 1 5 24% 6512 74580 11737 38%
c u 21.27 29 235 0 29 9558 26 104591 14177 3.5 25 7 1 5 24% 6534 74580 11737 38%
c v 21.36 29 235 0 29 9558 26 104591 11925 3.5 25 7 1 5 24% 6542 74580 11737 38%
c w 21.53 29 235 0 29 9558 26 104591 11854 3.5 25 7 1 5 24% 6542 74580 11737 38%
c x 21.63 29 235 0 29 9558 26 104591 11853 3.5 25 7 1 5 24% 6542 74561 11737 38%
c = 21.86 29 235 0 29 9558 26 104591 11853 3.5 25 7 1 5 24% 7031 74112 11436 37%
c
c  seconds   switched     rate          size/glue tier1    binary         remaining
c         MB   reductions   conflicts         size  tier2     irredundant
c           level   restarts       redundant    glue   trail         variables
c
c } 21.86 29 235 0 29 9558 26 104591 11853 3.5 25 7 1 5 24% 7031 74112 11678 38%
c 0 21.86 29 235 0 29 9558 26 104591 11853 3.5 25 7 1 5 24% 7031 74112 11678 38%
c
c ---- [ result ] ------------------------------------------------------------
c
s UNSATISFIABLE
c
c ---- [ profiling ] ---------------------------------------------------------
c
c          15.20   69.56 %  search
c          15.20   69.56 %  focused
c           6.30   28.82 %  simplify
c           5.86   26.79 %  probe
c           2.34   10.70 %  vivify
c           2.25   10.29 %  sweep
c           0.62    2.82 %  eliminate
c           0.41    1.88 %  factor
c           0.41    1.86 %  congruence
c           0.33    1.49 %  substitute
c           0.31    1.40 %  preprocess
c           0.14    0.62 %  reduce
c           0.13    0.58 %  fastel
c           0.11    0.50 %  subsume
c           0.08    0.39 %  transitive
c           0.04    0.17 %  backbone
c           0.03    0.13 %  lucky
c           0.02    0.09 %  parse
c =============================================
c          21.86  100.00 %  total
c
c ---- [ statistics ] --------------------------------------------------------
c
c chronological:                         6022                6 %  conflicts
c conflicts:                           104591             4784.46 per second
c congruent:                             3983               13 %  variables
c decisions:                          2653707               25.37 per conflict
c eliminated:                           13333               43 %  variables
c factored:                              4718               15 %  variables
c fast_eliminated:                       9133               68 %  eliminated
c fast_strengthened:                       18                2 %  per strengthened
c fast_subsumed:                           83                0 %  per subsumed
c iterations:                               3                0 %  variables
c propagations:                      96503190          4414487    per second
c reductions:                              29             3607    interval
c reordered:                                4            26148    interval
c restarts:                              9558               11    interval
c strengthened:                          1070                0 %  checks
c substituted:                          10532               34 %  variables
c subsumed:                             16835                1 %  checks
c switched:                                 0                0    interval
c vivified:                             56525               12 %  checks
c
c ---- [ glue usage ] --------------------------------------------------------
c
c focused glue 1 used 134015 clauses 56.84% accumulated 56.84% tier1
c focused glue 2 used  48253 clauses 20.46% accumulated 77.30%
c focused glue 3 used  14661 clauses  6.22% accumulated 83.52%
c focused glue 4 used   9504 clauses  4.03% accumulated 87.55%
c focused glue 5 used   6687 clauses  2.84% accumulated 90.39% tier2
c
c ---- [ resources ] ---------------------------------------------------------
c
c maximum-resident-set-size:         30785536 bytes         29 MB
c process-time:                            22s              21.86 seconds
c
c ---- [ shutting down ] -----------------------------------------------------
c
c exit 20
